####################################################################### 
# 
# This file contains crystal structure data downloaded from the 
# Cambridge Structural Database (CSD) hosted by the Cambridge 
# Crystallographic Data Centre (CCDC).
# 
# Full information about CCDC data access policies and citation 
# guidelines are available at http://www.ccdc.cam.ac.uk/access/V1 
# 
# Audit and citation data items may have been added by the CCDC. 
# Please retain this information to preserve the provenance of 
# this file and to allow appropriate attribution of the data. 
# 
#######################################################################

data_C2M
_audit_block_doi                 10.5517/cc564zg
_database_code_depnum_ccdc_archive 'CCDC 154875'
loop_
_citation_id
_citation_doi
_citation_year
1 10.1016/S0022-2860(01)00493-8 2001
_audit_update_record             
;
1999-01-04 deposited with the CCDC.	2021-04-07 downloaded from the CCDC.
;

_audit_creation_method           SHELXL-97

_chemical_name_systematic        
; 
? 
;
_chemical_name_common            'terephthalic acid'
_chemical_melting_point          ?
_chemical_formula_moiety         C6H4(COOH)2
_chemical_formula_sum            'C8 H8 O4'
_chemical_formula_weight         168.14

loop_
_atom_type_symbol
_atom_type_description
_atom_type_scat_dispersion_real
_atom_type_scat_dispersion_imag
_atom_type_scat_source
C C 0.0033 0.0016 'International Tables Vol C Tables 4.2.6.8 and 6.1.1.4'
H H 0.0000 0.0000 'International Tables Vol C Tables 4.2.6.8 and 6.1.1.4'
O O 0.0106 0.0060 'International Tables Vol C Tables 4.2.6.8 and 6.1.1.4'

_symmetry_cell_setting           monoclinic
_symmetry_space_group_name_H-M   'C 2/m'

loop_
_symmetry_equiv_pos_as_xyz
'x, y, z'
'-x, y, -z'
'x+1/2, y+1/2, z'
'-x+1/2, y+1/2, -z'
'-x, -y, -z'
'x, -y, z'
'-x+1/2, -y+1/2, -z'
'x+1/2, -y+1/2, z'

_cell_length_a                   8.940(2)
_cell_length_b                   10.442(2)
_cell_length_c                   3.7900(10)
_cell_angle_alpha                90.00
_cell_angle_beta                 91.21(3)
_cell_angle_gamma                90.00
_cell_volume                     353.72(14)
_cell_formula_units_Z            2
_cell_measurement_temperature    293(2)
_cell_measurement_reflns_used    26
_cell_measurement_theta_min      9
_cell_measurement_theta_max      12

_exptl_crystal_description       parallelepiped
_exptl_crystal_colour            colourless
_exptl_crystal_size_max          0.38
_exptl_crystal_size_mid          0.30
_exptl_crystal_size_min          0.20
_exptl_crystal_density_meas      1.57
_exptl_crystal_density_diffrn    1.579
_exptl_crystal_density_method    floatation
_exptl_crystal_F_000             176
_exptl_absorpt_coefficient_mu    0.128
_exptl_absorpt_correction_type   ?
_exptl_absorpt_correction_T_min  0.9528
_exptl_absorpt_correction_T_max  0.9748
_exptl_absorpt_process_details   ?

_exptl_special_details           
; 
? 
;

_diffrn_ambient_temperature      293(2)
_diffrn_radiation_wavelength     0.71073
_diffrn_radiation_type           MoK\a
_diffrn_radiation_source         'fine-focus sealed tube'
_diffrn_radiation_monochromator  graphite
_diffrn_measurement_device_type  'KUMA KM-4 diffractometer'
_diffrn_measurement_method       \w-2\q-scan
_diffrn_detector_area_resol_mean ?
_diffrn_standards_number         2
_diffrn_standards_interval_count 50
_diffrn_standards_interval_time  ?
_diffrn_standards_decay_%        0.25
_diffrn_reflns_number            928
_diffrn_reflns_av_R_equivalents  0.0111
_diffrn_reflns_av_sigmaI/netI    0.0186
_diffrn_reflns_limit_h_min       -12
_diffrn_reflns_limit_h_max       12
_diffrn_reflns_limit_k_min       -14
_diffrn_reflns_limit_k_max       14
_diffrn_reflns_limit_l_min       0
_diffrn_reflns_limit_l_max       5
_diffrn_reflns_theta_min         3.00
_diffrn_reflns_theta_max         29.05
_reflns_number_total             467
_reflns_number_gt                334
_reflns_threshold_expression     >2sigma(I)

_computing_data_collection       'KUMA KM-4 software'
_computing_cell_refinement       'KUMA KM-4 software'
_computing_data_reduction        'KUMA KM-4 software'
_computing_structure_solution    'SHELXS-97 (Sheldrick, 1990)'
_computing_structure_refinement  'SHELXL-97 (Sheldrick, 1997)'
_computing_molecular_graphics    'SHELXTL (Sheldrick, 1990)'
_computing_publication_material  'SHELXL97 (Sheldrick, 1997)'

_refine_special_details          
; 
Refinement of F^2^ against ALL reflections.  The weighted R-factor wR and 
goodness of fit S are based on F^2^, conventional R-factors R are based 
on F, with F set to zero for negative F^2^. The threshold expression of 
F^2^ > 2sigma(F^2^) is used only for calculating R-factors(gt) etc. and is 
not relevant to the choice of reflections for refinement.  R-factors based 
on F^2^ are statistically about twice as large as those based on F, and R- 
factors based on ALL data will be even larger. 
;

_refine_ls_structure_factor_coef Fsqd
_refine_ls_matrix_type           full
_refine_ls_weighting_scheme      calc
_refine_ls_weighting_details     
'calc w=1/[\s^2^(Fo^2^)+(0.0001P)^2^+0.0334P] where P=(Fo^2^+2Fc^2^)/3'
_atom_sites_solution_primary     direct
_atom_sites_solution_secondary   difmap
_atom_sites_solution_hydrogens   geom
_refine_ls_hydrogen_treatment    mixed
_refine_ls_extinction_method     none
_refine_ls_extinction_coef       ?
_refine_ls_number_reflns         467
_refine_ls_number_parameters     37
_refine_ls_number_restraints     1
_refine_ls_R_factor_all          0.0481
_refine_ls_R_factor_gt           0.0254
_refine_ls_wR_factor_ref         0.0318
_refine_ls_wR_factor_gt          0.0293
_refine_ls_goodness_of_fit_ref   1.029
_refine_ls_restrained_S_all      1.028
_refine_ls_shift/su_max          0.000
_refine_ls_shift/su_mean         0.000

loop_
_atom_site_label
_atom_site_type_symbol
_atom_site_fract_x
_atom_site_fract_y
_atom_site_fract_z
_atom_site_U_iso_or_equiv
_atom_site_adp_type
_atom_site_occupancy
_atom_site_symmetry_multiplicity
_atom_site_calc_flag
_atom_site_refinement_flags
_atom_site_disorder_assembly
_atom_site_disorder_group
O1 O 0.35953(6) 0.39529(7) 0.3652(2) 0.0896(3) Uani 1 1 d D . .
H1 H 0.4487(12) 0.4047(17) 0.409(7) 0.134 Uiso 0.50 1 d PD . .
C1 C 0.14291(11) 0.5000 0.1435(3) 0.0448(3) Uani 1 2 d S . .
C2 C 0.07181(8) 0.38653(8) 0.0719(2) 0.0556(2) Uani 1 1 d . . .
H2 H 0.1193(8) 0.3084(7) 0.123(2) 0.067 Uiso 1 1 d . . .
C3 C 0.29736(12) 0.5000 0.3013(3) 0.0538(3) Uani 1 2 d S . .

loop_
_atom_site_aniso_label
_atom_site_aniso_U_11
_atom_site_aniso_U_22
_atom_site_aniso_U_33
_atom_site_aniso_U_23
_atom_site_aniso_U_13
_atom_site_aniso_U_12
O1 0.0553(4) 0.0918(5) 0.1200(6) -0.0115(4) -0.0386(4) 0.0178(4)
C1 0.0348(5) 0.0587(7) 0.0406(6) 0.000 -0.0056(4) 0.000
C2 0.0448(4) 0.0522(5) 0.0692(6) 0.0056(5) -0.0097(4) 0.0066(4)
C3 0.0376(5) 0.0767(8) 0.0466(7) 0.000 -0.0079(5) 0.000

_geom_special_details            
; 
All esds (except the esd in the dihedral angle between two l.s. planes) 
are estimated using the full covariance matrix.  The cell esds are taken 
into account individually in the estimation of esds in distances, angles 
and torsion angles; correlations between esds in cell parameters are only 
used when they are defined by crystal symmetry.  An approximate (isotropic) 
treatment of cell esds is used for estimating esds involving l.s. planes. 
;

loop_
_geom_bond_atom_site_label_1
_geom_bond_atom_site_label_2
_geom_bond_distance
_geom_bond_site_symmetry_2
_geom_bond_publ_flag
O1 C3 1.2480(7) . ?
O1 H1 0.817(9) . ?
C1 C2 1.3691(9) . ?
C1 C2 1.3691(9) 6_565 ?
C1 C3 1.4931(13) . ?
C2 C2 1.3841(13) 2 ?
C2 H2 0.938(7) . ?
C3 O1 1.2480(7) 6_565 ?

loop_
_geom_angle_atom_site_label_1
_geom_angle_atom_site_label_2
_geom_angle_atom_site_label_3
_geom_angle
_geom_angle_site_symmetry_1
_geom_angle_site_symmetry_3
_geom_angle_publ_flag
C3 O1 H1 111.3(13) . . ?
C2 C1 C2 119.86(9) . 6_565 ?
C2 C1 C3 120.07(4) . . ?
C2 C1 C3 120.07(4) 6_565 . ?
C1 C2 C2 120.07(4) . 2 ?
C1 C2 H2 120.3(4) . . ?
C2 C2 H2 119.6(4) 2 . ?
O1 C3 O1 122.36(10) 6_565 . ?
O1 C3 C1 118.82(5) 6_565 . ?
O1 C3 C1 118.82(5) . . ?

_diffrn_measured_fraction_theta_max 0.927
_diffrn_reflns_theta_full        29.05
_diffrn_measured_fraction_theta_full 0.927
_refine_diff_density_max         0.091
_refine_diff_density_min         -0.092
_refine_diff_density_rms         0.017




